10
2147483647 20 82 75 13 21 12 17 69 76 
20 2147483647 46 95 28 31 68 61 53 34 
82 46 2147483647 37 53 86 82 73 28 5 
75 95 37 2147483647 93 94 93 50 97 96 
13 28 53 93 2147483647 95 13 84 47 34 
21 31 86 94 95 2147483647 83 11 94 3 
12 68 82 93 13 83 2147483647 2 50 60 
17 61 73 50 84 11 2 2147483647 20 56 
69 53 28 97 47 94 50 20 2147483647 28 
76 34 5 96 34 3 60 56 28 2147483647 
